#HF/6-31G** opt

optimisation of N2

0 1
N 
N 1 1.0 


